HFSDDW
15	12	4
0	60	1	56	2	93	3	22
0	69	1	32	2	43	3	80
0	85	1	11	2	54	3	46
0	98	1	23	2	24	3	36
0	82	1	99	2	70	3	35
0	24	1	76	2	36	3	54
0	39	1	48	2	56	3	87
0	41	1	64	2	27	3	94
0	48	1	93	2	92	3	35
0	60	1	25	2	67	3	81
0	52	1	57	2	94	3	61
0	70	1	85	2	77	3	87
0	66	1	9	2	16	3	95
0	59	1	84	2	45	3	83
0	20	1	40	2	82	3	22
LBCmax: 426
RELDUE
-1	193	7	8
-1	175	7	8
-1	161	5	7
-1	146	7	2
-1	199	3	5
-1	179	3	4
-1	212	6	5
-1	132	1	2
-1	154	2	4
-1	204	5	1
-1	192	9	2
-1	177	7	8
-1	156	1	8
-1	204	7	6
-1	199	7	3
DDW
181	205
163	187
150	172
145	147
183	215
177	181
201	223
124	140
149	159
192	216
190	194
170	184
154	158
188	220
187	211
